
******************************************************************************
This program contains Ipopt, a library for large-scale nonlinear optimization.
 Ipopt is released as open source code under the Eclipse Public License (EPL).
         For more information visit http://projects.coin-or.org/Ipopt
******************************************************************************

This is Ipopt version 3.12.6, running with linear solver ma57.

Number of nonzeros in equality constraint Jacobian...:    76091
Number of nonzeros in inequality constraint Jacobian.:        0
Number of nonzeros in Lagrangian Hessian.............:    30004

Total number of variables............................:    25004
                     variables with only lower bounds:    10000
                variables with lower and upper bounds:        0
                     variables with only upper bounds:        0
Total number of equality constraints.................:    20004
Total number of inequality constraints...............:        0
        inequality constraints with only lower bounds:        0
   inequality constraints with lower and upper bounds:        0
        inequality constraints with only upper bounds:        0

iter    objective    inf_pr   inf_du lg(mu)  ||d||  lg(rg) alpha_du alpha_pr  ls
   0  4.9999900e-01 9.92e+01 6.37e-01  -1.0 0.00e+00    -  0.00e+00 0.00e+00   0
   1  5.3549058e-01 9.90e+01 1.11e+00  -1.0 1.31e+02  -4.0 9.93e-04 2.01e-03h  1
   2  6.0042693e-01 9.89e+01 1.10e+00  -1.0 8.22e+01  -4.5 1.75e-03 1.63e-03f  1
   3  6.9909277e-01 9.87e+01 1.10e+00  -1.0 5.18e+01  -5.0 1.89e-03 1.99e-03f  1
   4  8.0589141e-01 9.85e+01 1.10e+00  -1.0 3.49e+01  -5.4 2.07e-03 1.98e-03f  1
   5  9.4463366e-01 9.82e+01 1.09e+00  -1.0 3.27e+01  -5.9 2.38e-03 2.43e-03f  1
   6  1.1618034e+00 9.79e+01 1.09e+00  -1.0 1.63e+01  -6.4 3.06e-03 3.62e-03f  1
   7  1.4410904e+00 9.75e+01 1.60e+00  -1.0 1.46e+01  -6.9 3.37e-03 4.40e-03f  1
   8  1.8969747e+00 9.68e+01 1.84e+00  -1.0 1.46e+01  -7.3 5.33e-03 6.73e-03f  1
   9  2.6054561e+00 9.59e+01 2.46e+00  -1.0 1.45e+01  -7.8 6.84e-03 9.62e-03f  1
iter    objective    inf_pr   inf_du lg(mu)  ||d||  lg(rg) alpha_du alpha_pr  ls
  10  3.6829793e+00 9.46e+01 2.43e+00  -1.0 1.43e+01  -8.3 1.03e-02 1.33e-02f  1
  11  6.7323704e+00 9.16e+01 4.12e+00  -1.0 1.41e+01  -8.8 1.80e-02 3.21e-02f  1
  12  2.1333509e+02 2.77e+01 8.70e+01  -1.0 1.37e+01  -9.2 3.20e-02 6.98e-01f  1
  13  2.0063786e+02 2.49e+01 8.13e+01  -1.0 4.29e+01  -9.7 4.98e-01 9.90e-02f  1
  14  2.1876935e+02 1.25e+01 4.05e+01  -1.0 6.09e+00 -10.2 3.94e-01 4.96e-01f  1
  15  2.6477618e+02 6.15e+00 1.20e+02  -1.0 2.93e+00 -10.7 1.50e-01 5.10e-01f  1
  16  2.9132390e+02 3.85e+00 6.14e+01  -1.0 2.14e+00 -11.2 2.08e-01 3.74e-01h  1
  17  3.1246121e+02 2.40e+00 1.30e+03  -1.0 1.34e+00 -11.6 5.73e-01 3.76e-01h  1
  18  3.3457177e+02 1.20e+00 3.23e+03  -1.0 1.56e+00 -12.1 8.80e-01 4.99e-01h  1
  19  3.5041334e+02 4.69e-01 6.15e+03  -1.0 2.35e+01 -12.6 2.30e-01 6.10e-01f  1
iter    objective    inf_pr   inf_du lg(mu)  ||d||  lg(rg) alpha_du alpha_pr  ls
  20  3.5414887e+02 3.04e-01 3.71e+03  -1.0 2.10e+01 -13.1 3.14e-01 3.52e-01f  1
  21  3.6031098e+02 3.65e-02 1.21e+03  -1.0 2.75e+01 -13.5 6.79e-01 8.80e-01h  1
  22  3.6096775e+02 2.60e-02 1.42e+03  -1.0 1.61e+02 -14.0 5.79e-01 2.88e-01f  1
  23  3.6375846e+02 1.28e-05 9.68e+02  -1.0 3.31e+02 -14.5 3.60e-01 1.00e+00f  1
  24  3.6643863e+02 8.41e-06 1.52e+03  -1.0 4.85e+03 -15.0 6.68e-01 9.28e-01f  1
  25  3.6700078e+02 8.31e-06 3.61e+03  -1.0 9.66e+03 -15.5 5.46e-01 6.50e-02f  1
  26  3.6682139e+02 7.39e-06 7.25e-03  -1.0 2.93e+01  -3.6 1.00e+00 1.00e+00h  1
  27  5.0934845e+01 1.43e-07 7.81e-02  -2.5 4.70e-01  -4.1 9.99e-01 1.00e+00f  1
  28  1.1350326e+01 5.80e-09 1.27e-05  -3.8 4.60e-01  -4.6 1.00e+00 1.00e+00f  1
Reallocating memory for MA57: lfact (10993991)
  29  2.7445525e+00 5.19e-09 2.22e-05  -5.7 7.57e-01  -5.0 9.98e-01 9.98e-01f  1
Reallocating memory for MA57: lfact (13819891)
iter    objective    inf_pr   inf_du lg(mu)  ||d||  lg(rg) alpha_du alpha_pr  ls
  30  6.4522872e-01 1.03e-11 4.74e+05  -5.7 1.05e+00  -5.5 2.19e-02 1.00e+00f  1
  31  2.6377162e-01 7.25e-12 1.31e+02  -5.7 2.66e-01  -6.0 9.49e-01 1.00e+00f  1
  32  6.0326463e-02 1.28e-11 3.14e+00  -5.7 2.48e-01  -6.5 9.75e-01 1.00e+00f  1
  33  1.4748544e-02 4.14e-11 2.56e-08  -5.7 2.26e-01  -6.9 1.00e+00 1.00e+00f  1
  34  3.2026826e-03 3.38e-11 3.31e-03  -8.6 5.70e-01  -5.6 8.06e-01 8.06e-01f  1
  35  4.3893958e-04 1.90e-11 7.58e+00  -8.6 1.97e-01  -6.1 6.80e-01 8.88e-01f  1
  36  1.1175369e-04 1.80e-11 8.53e+00  -8.6 4.74e-02  -6.6 7.35e-01 5.61e-01f  1
  37 -1.1066863e-04 1.24e-09 6.03e+00  -8.6 5.67e-03  -4.3 9.97e-01 7.42e-01f  1
  38 -2.3001954e-04 1.45e-09 3.57e-01  -8.6 7.13e-04  -3.0 1.00e+00 9.83e-01f  1
  39 -2.2999636e-04 1.45e-09 1.49e+01  -8.6 2.58e-04  -3.5 9.03e-01 1.95e-03f 10
iter    objective    inf_pr   inf_du lg(mu)  ||d||  lg(rg) alpha_du alpha_pr  ls
  40 -2.1465075e-04 1.12e-09 2.80e-07  -8.6 3.22e-04  -3.1 1.00e+00 1.00e+00h  1
  41 -2.0374839e-04 9.57e-10 3.42e+00  -8.6 1.48e-04  -3.5 7.47e-01 1.00e+00h  1
  42 -1.9759347e-04 7.67e-10 5.80e+00  -8.6 4.32e-04  -4.0 5.94e-01 1.00e+00h  1
  43 -1.9569470e-04 6.67e-10 6.60e+00  -8.6 1.28e-03  -4.5 5.67e-01 1.00e+00h  1
  44 -1.9439613e-04 5.97e-10 6.26e+00  -8.6 3.82e-03  -5.0 5.84e-01 1.00e+00h  1
  45 -1.9138777e-04 5.54e-10 4.91e+00  -8.6 1.14e-02  -5.4 6.52e-01 1.00e+00h  1
  46 -1.9057741e-04 5.35e-10 2.47e+00  -8.6 3.42e-02  -5.9 8.02e-01 1.00e+00h  1
  47 -1.8932722e-04 5.01e-10 4.05e-08  -8.6 1.02e-01  -6.4 1.00e+00 1.00e+00h  1
  48 -1.8920997e-04 5.00e-10 3.55e-03  -8.6 3.26e-01  -6.9 2.27e-01 2.28e-01h  1
  49 -1.8918685e-04 5.00e-10 1.80e+00  -8.6 9.18e-01  -7.4 2.62e-01 1.64e-02f  5
iter    objective    inf_pr   inf_du lg(mu)  ||d||  lg(rg) alpha_du alpha_pr  ls
  50 -1.8930640e-04 4.88e-10 3.04e-07  -8.6 5.05e-03  -4.2 1.00e+00 1.00e+00h  1
  51 -1.8891591e-04 4.73e-10 5.66e-08  -8.6 2.82e-03  -4.7 1.00e+00 1.00e+00h  1
  52 -1.8852868e-04 4.59e-10 4.12e-08  -8.6 6.15e-03  -5.2 1.00e+00 1.00e+00h  1
  53 -1.8814025e-04 4.47e-10 4.23e-08  -8.6 1.90e-02  -5.7 1.00e+00 1.00e+00h  1
  54 -1.8777873e-04 4.37e-10 4.22e-08  -8.6 5.68e-02  -6.1 1.00e+00 1.00e+00h  1
  55 -1.8738543e-04 4.28e-10 4.23e-08  -8.6 1.71e-01  -6.6 1.00e+00 1.00e+00h  1
  56 -1.8733821e-04 4.23e-10 3.19e-04  -8.6 5.13e-01  -7.1 4.73e-01 4.73e-01H  1
  57 -1.8730050e-04 4.23e-10 8.49e-01  -8.6 1.55e+00  -7.6 1.51e-01 1.88e-02f  4
  58 -1.9312604e-04 4.09e-10 7.45e+00  -8.6 4.36e+00  -8.0 4.21e-01 1.00e+00H  1
  59 -1.8957505e-04 3.88e-10 5.81e-08  -8.6 5.80e-04  -4.0 1.00e+00 1.00e+00h  1
iter    objective    inf_pr   inf_du lg(mu)  ||d||  lg(rg) alpha_du alpha_pr  ls
  60 -1.8991085e-04 3.63e-10 4.83e-08  -8.6 1.45e-03  -4.5 1.00e+00 1.00e+00h  1
  61 -1.8968951e-04 3.47e-10 4.26e-08  -8.6 3.82e-03  -5.0 1.00e+00 1.00e+00h  1
  62 -1.8949852e-04 3.34e-10 4.25e-08  -8.6 1.14e-02  -5.4 1.00e+00 1.00e+00h  1
  63 -1.8935544e-04 3.23e-10 4.25e-08  -8.6 3.43e-02  -5.9 1.00e+00 1.00e+00h  1
  64 -1.8917767e-04 3.14e-10 4.25e-08  -8.6 1.03e-01  -6.4 1.00e+00 1.00e+00h  1
  65 -1.8914544e-04 3.11e-10 1.92e-04  -8.6 3.11e-01  -6.9 3.72e-01 3.72e-01H  1
  66 -1.8912297e-04 3.11e-10 6.88e-01  -8.6 9.34e-01  -7.3 1.67e-01 2.08e-02f  4
  67 -1.8931580e-04 2.98e-10 1.48e-07  -8.6 1.89e-02  -5.1 1.00e+00 1.00e+00h  1
  68 -1.8919003e-04 2.91e-10 4.13e-08  -8.6 1.58e-02  -5.6 1.00e+00 1.00e+00h  1
  69 -1.8907140e-04 2.88e-10 4.28e-08  -8.6 4.92e-02  -6.1 1.00e+00 1.00e+00h  1
iter    objective    inf_pr   inf_du lg(mu)  ||d||  lg(rg) alpha_du alpha_pr  ls
  70 -1.8913260e-04 2.82e-10 4.27e-08  -8.6 1.47e-01  -6.5 1.00e+00 1.00e+00H  1
  71 -1.8913258e-04 2.82e-10 9.25e-01  -8.6 4.49e-01  -7.0 2.24e-01 2.72e-05h 14
  72 -1.8900636e-04 2.77e-10 5.31e-01  -8.6 3.41e-02  -4.8 8.54e-01 7.52e-01h  1
  73 -1.8896791e-04 2.76e-10 2.88e+00  -8.6 7.39e-03  -5.3 1.00e+00 2.50e-01f  3
  74 -1.8879970e-04 2.70e-10 4.05e-08  -8.6 2.21e-02  -5.7 1.00e+00 1.00e+00h  1
  75 -1.8866692e-04 2.67e-10 4.26e-08  -8.6 6.97e-02  -6.2 1.00e+00 1.00e+00h  1
  76 -1.8874014e-04 2.63e-10 2.23e-03  -8.6 2.11e-01  -6.7 7.75e-01 7.75e-01H  1
  77 -1.8870592e-04 2.64e-10 1.25e+00  -8.6 6.31e-01  -7.2 3.57e-01 4.47e-02f  4
  78 -1.8878094e-04 2.57e-10 1.61e-07  -8.6 1.39e-02  -4.9 1.00e+00 1.00e+00h  1
  79 -1.8872857e-04 2.53e-10 6.36e-08  -8.6 1.65e-02  -5.4 1.00e+00 1.00e+00h  1
iter    objective    inf_pr   inf_du lg(mu)  ||d||  lg(rg) alpha_du alpha_pr  ls
  80 -1.8866777e-04 2.50e-10 3.47e-08  -8.6 2.70e-02  -5.9 1.00e+00 1.00e+00h  1
  81 -1.8873046e-04 2.44e-10 4.24e-08  -8.6 9.90e-02  -6.4 1.00e+00 1.00e+00H  1
  82 -1.8872985e-04 2.44e-10 1.29e+00  -8.6 3.03e-01  -6.8 3.61e-01 1.41e-03h  9
  83 -1.8866563e-04 2.41e-10 1.91e-07  -8.6 7.84e-03  -4.6 1.00e+00 1.00e+00h  1
  84 -1.8862751e-04 2.38e-10 5.76e-08  -8.6 7.08e-03  -5.1 1.00e+00 1.00e+00h  1
  85 -1.8858186e-04 2.35e-10 4.36e-08  -8.6 1.61e-02  -5.6 1.00e+00 1.00e+00h  1
  86 -1.8851699e-04 2.33e-10 4.30e-08  -8.6 4.75e-02  -6.0 1.00e+00 1.00e+00h  1
  87 -1.8856623e-04 2.29e-10 7.94e-04  -8.6 1.43e-01  -6.5 7.48e-01 7.48e-01H  1
  88 -1.8855042e-04 2.29e-10 1.09e-01  -8.6 4.50e-01  -7.0 6.34e-02 3.17e-02f  2
  89 -1.8858586e-04 2.23e-10 1.99e-07  -8.6 1.16e-02  -4.8 1.00e+00 1.00e+00h  1
iter    objective    inf_pr   inf_du lg(mu)  ||d||  lg(rg) alpha_du alpha_pr  ls
  90 -1.8853283e-04 2.20e-10 4.52e-08  -8.6 7.92e-03  -5.2 1.00e+00 1.00e+00h  1
  91 -1.8847640e-04 2.17e-10 4.29e-08  -8.6 2.25e-02  -5.7 1.00e+00 1.00e+00h  1
  92 -1.8849691e-04 2.13e-10 4.32e-08  -8.6 6.81e-02  -6.2 1.00e+00 1.00e+00H  1
  93 -1.8845542e-04 2.11e-10 5.12e-04  -8.6 2.04e-01  -6.7 7.00e-01 7.00e-01H  1
  94 -1.8844807e-04 2.12e-10 1.07e+00  -8.6 6.14e-01  -7.2 3.34e-01 1.04e-02f  6
  95 -1.8996979e-04 2.21e-10 4.07e-08  -8.6 1.73e+00  -7.6 1.00e+00 1.00e+00H  1
  96 -1.8953484e-04 2.11e-10 7.66e-08  -8.6 1.91e-02  -5.4 1.00e+00 1.00e+00h  1
  97 -1.8939119e-04 2.06e-10 4.16e-08  -8.6 3.11e-02  -5.9 1.00e+00 1.00e+00h  1
  98 -1.8938922e-04 1.99e-10 4.39e-08  -8.6 9.85e-02  -6.4 1.00e+00 1.00e+00H  1
  99 -1.8947616e-04 1.94e-10 4.29e-08  -8.6 2.89e-01  -6.8 1.00e+00 1.00e+00H  1
iter    objective    inf_pr   inf_du lg(mu)  ||d||  lg(rg) alpha_du alpha_pr  ls
 100 -1.8947576e-04 1.94e-10 1.16e+00  -8.6 8.87e-01  -7.3 3.61e-01 3.52e-04h 11
 101 -1.8935420e-04 1.89e-10 1.12e-07  -8.6 1.66e-03  -4.2 1.00e+00 1.00e+00h  1
 102 -1.8929966e-04 1.86e-10 5.25e-08  -8.6 2.33e-03  -4.6 1.00e+00 1.00e+00h  1
 103 -1.8925474e-04 1.84e-10 4.37e-08  -8.6 5.82e-03  -5.1 1.00e+00 1.00e+00h  1
 104 -1.8921017e-04 1.82e-10 4.33e-08  -8.6 1.73e-02  -5.6 1.00e+00 1.00e+00h  1
 105 -1.8922299e-04 1.79e-10 4.33e-08  -8.6 5.19e-02  -6.1 1.00e+00 1.00e+00H  1
 106 -1.8927990e-04 1.77e-10 4.33e-08  -8.6 1.56e-01  -6.6 1.00e+00 1.00e+00H  1
 107 -1.8927984e-04 1.77e-10 1.07e+00  -8.6 4.68e-01  -7.0 3.88e-01 9.47e-05h 13
 108 -1.8921554e-04 1.74e-10 1.35e-07  -8.6 8.53e-03  -4.8 1.00e+00 1.00e+00h  1
 109 -1.8918466e-04 1.73e-10 7.40e-08  -8.6 1.40e-02  -5.3 1.00e+00 1.00e+00h  1
iter    objective    inf_pr   inf_du lg(mu)  ||d||  lg(rg) alpha_du alpha_pr  ls
 110 -1.8916797e-04 1.70e-10 3.70e-08  -8.6 2.10e-02  -5.8 1.00e+00 1.00e+00H  1
 111 -1.8918390e-04 1.69e-10 4.43e-08  -8.6 7.56e-02  -6.2 1.00e+00 1.00e+00H  1
 112 -1.8931719e-04 1.69e-10 4.28e-08  -8.6 2.19e-01  -6.7 1.00e+00 1.00e+00H  1
 113 -1.8931479e-04 1.69e-10 5.87e-02  -8.6 7.59e-01  -7.2 2.41e-02 3.01e-03h  4
 114 -1.8931469e-04 1.69e-10 1.65e-01  -8.6 3.39e-01  -5.0 4.73e-02 9.92e-04h  6
 115 -1.8931245e-04 1.69e-10 1.63e-01  -8.6 3.33e-01  -5.4 1.58e-02 1.58e-02s 32
 116 -1.8925610e-04 1.67e-10 2.36e+00  -8.6 2.46e-02  -5.0 1.00e+00 0.00e+00S 32
 117 -1.8924491e-04 1.66e-10 4.15e-08  -8.6 1.26e-02  -5.5 1.00e+00 1.00e+00H  1
 118 -1.8923379e-04 1.64e-10 4.37e-08  -8.6 3.98e-02  -6.0 1.00e+00 1.00e+00H  1
 119 -1.8928315e-04 1.63e-10 4.35e-08  -8.6 1.19e-01  -6.4 1.00e+00 1.00e+00H  1
iter    objective    inf_pr   inf_du lg(mu)  ||d||  lg(rg) alpha_du alpha_pr  ls
 120 -1.8928315e-04 1.63e-10 9.43e-01  -8.6 3.58e-01  -6.9 3.77e-01 5.75e-06h 17
 121 -1.8923628e-04 1.61e-10 8.41e-08  -8.6 4.04e-03  -4.7 1.00e+00 1.00e+00h  1
 122 -1.8920743e-04 1.59e-10 4.67e-08  -8.6 6.73e-03  -5.2 1.00e+00 1.00e+00h  1
 123 -1.8917652e-04 1.59e-10 4.34e-08  -8.6 1.88e-02  -5.6 1.00e+00 1.00e+00h  1
 124 -1.8921823e-04 1.56e-10 4.36e-08  -8.6 5.65e-02  -6.1 1.00e+00 1.00e+00H  1
 125 -1.8931364e-04 1.55e-10 4.36e-08  -8.6 1.70e-01  -6.6 1.00e+00 1.00e+00H  1
 126 -1.8931363e-04 1.55e-10 1.69e+00  -8.6 5.09e-01  -7.1 6.77e-01 2.07e-05h 16
 127 -1.8926191e-04 1.53e-10 1.01e-07  -8.6 6.91e-03  -4.8 1.00e+00 1.00e+00h  1
 128 -1.8924046e-04 1.52e-10 5.39e-08  -8.6 1.11e-02  -5.3 1.00e+00 1.00e+00h  1
 129 -1.8921598e-04 1.51e-10 4.55e-08  -8.6 2.80e-02  -5.8 1.00e+00 1.00e+00h  1
iter    objective    inf_pr   inf_du lg(mu)  ||d||  lg(rg) alpha_du alpha_pr  ls
 130 -1.8931034e-04 1.49e-10 4.39e-08  -8.6 8.11e-02  -6.3 1.00e+00 1.00e+00H  1
 131 -1.8939645e-04 1.50e-10 2.95e-03  -8.6 2.42e-01  -6.7 8.38e-01 8.38e-01H  1
 132 -1.8936090e-04 1.51e-10 8.42e-01  -8.6 7.27e-01  -7.2 3.75e-01 4.69e-02f  4
 133 -1.8944207e-04 1.48e-10 8.65e-08  -8.6 8.42e-03  -5.0 1.00e+00 1.00e+00h  1
 134 -1.8941487e-04 1.46e-10 4.44e-08  -8.6 1.30e-02  -5.5 1.00e+00 1.00e+00h  1
 135 -1.8945131e-04 1.43e-10 4.38e-08  -8.6 3.84e-02  -5.9 1.00e+00 1.00e+00H  1
 136 -1.8953082e-04 1.42e-10 4.37e-08  -8.6 1.15e-01  -6.4 1.00e+00 1.00e+00H  1
 137 -1.8960549e-04 1.44e-10 1.41e-04  -8.6 3.45e-01  -6.9 7.54e-01 7.54e-01H  1
 138 -1.8957439e-04 1.45e-10 2.39e-01  -8.6 1.04e+00  -7.4 1.19e-01 2.98e-02f  3
 139 -1.8969499e-04 1.40e-10 1.39e-07  -8.6 2.41e-03  -4.2 1.00e+00 1.00e+00h  1
iter    objective    inf_pr   inf_du lg(mu)  ||d||  lg(rg) alpha_du alpha_pr  ls
 140 -1.8966332e-04 1.38e-10 6.15e-08  -8.6 3.20e-03  -4.7 1.00e+00 1.00e+00h  1
 141 -1.8964360e-04 1.37e-10 4.40e-08  -8.6 6.87e-03  -5.2 1.00e+00 1.00e+00h  1
 142 -1.8962291e-04 1.37e-10 4.37e-08  -8.6 2.05e-02  -5.7 1.00e+00 1.00e+00h  1
 143 -1.8968914e-04 1.36e-10 4.38e-08  -8.6 6.14e-02  -6.1 1.00e+00 1.00e+00H  1
 144 -1.8981179e-04 1.36e-10 4.38e-08  -8.6 1.84e-01  -6.6 1.00e+00 1.00e+00H  1
 145 -1.8980488e-04 1.36e-10 7.67e-01  -8.6 5.54e-01  -7.1 3.48e-01 1.09e-02h  6
 146 -1.8976765e-04 1.35e-10 9.35e-08  -8.6 6.92e-03  -4.9 1.00e+00 1.00e+00h  1
 147 -1.8974353e-04 1.34e-10 4.63e-08  -8.6 1.03e-02  -5.3 1.00e+00 1.00e+00h  1
 148 -1.8975778e-04 1.33e-10 4.37e-08  -8.6 2.91e-02  -5.8 1.00e+00 1.00e+00H  1
 149 -1.8980044e-04 1.32e-10 4.38e-08  -8.6 8.76e-02  -6.3 1.00e+00 1.00e+00H  1
iter    objective    inf_pr   inf_du lg(mu)  ||d||  lg(rg) alpha_du alpha_pr  ls
 150 -1.8997668e-04 1.34e-10 4.38e-08  -8.6 2.63e-01  -6.8 1.00e+00 1.00e+00H  1
 151 -1.9007800e-04 1.43e-10 2.18e-04  -8.6 7.89e-01  -7.3 7.00e-01 7.00e-01H  1
 152 -1.9004866e-04 1.44e-10 1.30e-01  -8.6 2.36e+00  -7.7 4.94e-02 1.24e-02f  3
 153 -1.9007691e-04 1.43e-10 8.53e-02  -8.6 1.56e-01  -4.6 5.17e-02 1.09e-01h  1
 154 -1.9011212e-04 1.42e-10 1.91e-01  -8.6 7.80e-02  -5.1 8.37e-02 1.64e-01f  1
 155 -1.9011343e-04 1.42e-10 1.78e-01  -8.6 2.50e-01  -4.6 1.48e-02 7.86e-03f  2
 156 -1.9018418e-04 1.34e-10 5.03e-07  -8.6 8.38e-03  -4.2 1.00e+00 1.00e+00h  1
 157 -1.9020386e-04 1.32e-10 1.83e-07  -8.6 9.14e-03  -4.7 1.00e+00 1.00e+00h  1
 158 -1.9018830e-04 1.31e-10 8.14e-08  -8.6 1.22e-02  -5.2 1.00e+00 1.00e+00h  1
 159 -1.9018128e-04 1.29e-10 4.14e-08  -8.6 1.86e-02  -5.7 1.00e+00 1.00e+00H  1
iter    objective    inf_pr   inf_du lg(mu)  ||d||  lg(rg) alpha_du alpha_pr  ls
 160 -1.9020716e-04 1.29e-10 4.45e-08  -8.6 6.01e-02  -6.1 1.00e+00 1.00e+00H  1
 161 -1.9027296e-04 1.30e-10 3.46e-04  -8.6 1.77e-01  -6.6 8.60e-01 8.61e-01H  1
 162 -1.9024379e-04 1.31e-10 8.03e-01  -8.6 5.37e-01  -7.1 4.21e-01 5.27e-02f  4
 163 -1.9162089e-04 1.48e-10 2.27e+00  -8.6 1.52e+00  -7.6 4.60e-01 1.00e+00H  1
 164 -1.9129405e-04 1.38e-10 5.69e-08  -8.6 1.52e-03  -4.4 1.00e+00 1.00e+00h  1
 165 -1.9119593e-04 1.34e-10 4.35e-08  -8.6 3.49e-03  -4.9 1.00e+00 1.00e+00h  1
 166 -1.9113959e-04 1.32e-10 4.41e-08  -8.6 1.06e-02  -5.4 1.00e+00 1.00e+00h  1
 167 -1.9109411e-04 1.31e-10 4.41e-08  -8.6 3.18e-02  -5.9 1.00e+00 1.00e+00h  1
 168 -1.9118612e-04 1.30e-10 4.41e-08  -8.6 9.54e-02  -6.3 1.00e+00 1.00e+00H  1
 169 -1.9137730e-04 1.31e-10 4.41e-08  -8.6 2.86e-01  -6.8 1.00e+00 1.00e+00H  1

Number of Iterations....: 169

                                   (scaled)                 (unscaled)
Objective...............:  -1.9137729845987593e-04   -1.9137729845987593e-04
Dual infeasibility......:   4.4108621112306004e-08    4.4108621112306004e-08
Constraint violation....:   1.3119755910138098e-10    1.3119755910138098e-10
Complementarity.........:   2.5059035596800692e-09    2.5059035596800692e-09
Overall NLP error.......:   4.4108621112306004e-08    4.4108621112306004e-08


Number of objective function evaluations             = 426
Number of objective gradient evaluations             = 171
Number of equality constraint evaluations            = 426
Number of inequality constraint evaluations          = 0
Number of equality constraint Jacobian evaluations   = 171
Number of inequality constraint Jacobian evaluations = 0
Number of Lagrangian Hessian evaluations             = 170
Total CPU secs in IPOPT (w/o function evaluations)   =     57.653
Total CPU secs in NLP function evaluations           =      2.930

EXIT: Solved To Acceptable Level.

************************ CUTEst statistics ************************


 Package used            :  IPOPT
 Problem                 :  A5NNSNSL  
 # variables             =           60012
 # constraints           =           20004
 # objective functions   =        0.5980000E+03
 # objective gradients   =        0.1720000E+03
 # objective Hessians    =        0.1710000E+03
 # Hessian-vector prdct  =        0.0000000E+00
 # constraints functions =        0.5990000E+03
 # constraints gradients =        0.1730000E+03
 # constraints Hessians  =        0.1710000E+03
 Exit code               =               1
 Final f                 =  -0.1913773E-03
 Set up time             =            0.39 seconds
 Solve time              =          147.59 seconds


******************************************************************

System Time =      37.0890007019 s.
